p cnf 7230 17
-5491 -6051 -6153 0
-3498 -5995 6151 0
-5895 -6021 -6149 0
5491 -6154 0
3498 -6152 0
5895 -6150 0
6153 6154 0
-6151 6152 0
6149 6150 0
6051 -6154 0
5995 -6152 0
6021 -6150 0
-5495 -6033 6156 0
-6147 6148 0
6147 -6148 0
6033 -6156 0
5495 -6156 0
